14° run output:
{
    "Function": "kroA500.tsp",
    "Problem dimension": [
        343,
        114,
        52,
        60,
        331,
        46,
        439,
        217,
        421,
        5,
        239,
        3,
        371,
        96,
        401,
        2,
        398,
        454,
        437,
        462,
        308,
        296,
        351,
        213,
        442,
        161,
        355,
        0,
        24,
        87,
        163,
        346,
        402,
        464,
        198,
        256,
        392,
        78,
        54,
        347,
        30,
        10,
        125,
        137,
        183,
        486,
        349,
        487,
        86,
        452,
        497,
        31,
        13,
        23,
        11,
        61,
        277,
        499,
        18,
        390,
        301,
        223,
        425,
        191,
        68,
        468,
        325,
        202,
        171,
        41,
        491,
        369,
        373,
        84,
        404,
        479,
        396,
        19,
        97,
        104,
        293,
        290,
        322,
        141,
        237,
        391,
        284,
        469,
        111,
        71,
        409,
        384,
        451,
        107,
        20,
        426,
        90,
        260,
        39,
        367,
        169,
        152,
        245,
        165,
        397,
        432,
        119,
        480,
        103,
        262,
        302,
        266,
        89,
        145,
        236,
        273,
        15,
        306,
        356,
        50,
        47,
        449,
        66,
        176,
        249,
        187,
        115,
        32,
        207,
        204,
        258,
        291,
        427,
        417,
        380,
        174,
        186,
        240,
        313,
        279,
        311,
        21,
        326,
        434,
        12,
        285,
        211,
        116,
        25,
        430,
        272,
        269,
        388,
        261,
        438,
        9,
        413,
        162,
        112,
        14,
        244,
        339,
        139,
        201,
        55,
        496,
        170,
        190,
        34,
        199,
        144,
        127,
        470,
        242,
        458,
        132,
        42,
        64,
        123,
        386,
        75,
        147,
        423,
        362,
        117,
        250,
        172,
        74,
        255,
        80,
        379,
        324,
        44,
        62,
        332,
        400,
        189,
        51,
        361,
        234,
        167,
        265,
        370,
        314,
        375,
        73,
        418,
        88,
        463,
        218,
        77,
        248,
        101,
        492,
        53,
        459,
        253,
        102,
        232,
        460,
        490,
        443,
        387,
        135,
        457,
        267,
        208,
        233,
        424,
        252,
        412,
        485,
        433,
        319,
        446,
        57,
        195,
        372,
        376,
        297,
        416,
        128,
        16,
        316,
        456,
        395,
        148,
        110,
        228,
        307,
        70,
        113,
        126,
        323,
        156,
        385,
        405,
        294,
        177,
        419,
        342,
        271,
        206,
        243,
        212,
        329,
        157,
        209,
        365,
        219,
        160,
        348,
        360,
        318,
        328,
        166,
        478,
        229,
        435,
        36,
        200,
        22,
        363,
        130,
        221,
        58,
        28,
        393,
        327,
        407,
        49,
        344,
        461,
        129,
        354,
        37,
        257,
        151,
        7,
        17,
        26,
        406,
        93,
        333,
        254,
        415,
        227,
        494,
        108,
        403,
        477,
        493,
        105,
        472,
        179,
        330,
        498,
        95,
        164,
        350,
        450,
        100,
        56,
        120,
        146,
        357,
        368,
        247,
        305,
        289,
        310,
        315,
        341,
        283,
        381,
        312,
        298,
        226,
        336,
        466,
        337,
        185,
        429,
        222,
        304,
        38,
        225,
        389,
        69,
        467,
        473,
        92,
        340,
        99,
        196,
        220,
        251,
        287,
        35,
        76,
        465,
        453,
        178,
        428,
        131,
        33,
        448,
        216,
        334,
        488,
        150,
        210,
        134,
        475,
        410,
        420,
        158,
        358,
        274,
        268,
        300,
        149,
        140,
        455,
        394,
        124,
        180,
        27,
        374,
        264,
        184,
        441,
        303,
        29,
        136,
        353,
        345,
        203,
        168,
        106,
        238,
        481,
        65,
        205,
        118,
        270,
        94,
        215,
        48,
        317,
        278,
        143,
        91,
        436,
        377,
        6,
        292,
        263,
        335,
        378,
        359,
        133,
        82,
        181,
        153,
        40,
        474,
        320,
        275,
        280,
        495,
        155,
        72,
        173,
        489,
        4,
        422,
        281,
        142,
        259,
        445,
        121,
        83,
        79,
        241,
        282,
        230,
        98,
        109,
        192,
        382,
        408,
        288,
        483,
        414,
        231,
        45,
        286,
        81,
        471,
        214,
        138,
        338,
        309,
        411,
        431,
        482,
        8,
        43,
        122,
        321,
        224,
        159,
        175,
        188,
        383,
        67,
        476,
        295,
        193,
        246,
        352,
        399,
        364,
        1,
        85,
        154,
        235,
        63,
        447,
        366,
        197,
        182,
        276,
        444,
        440,
        59,
        194,
        299,
        484
    ],
    "Global Optimum": 0,
    "Algorithm": "Genetic algorithm",
    "Parameters": {
        "population": 30,
        "offspring": 30,
        "mutation probability": 0.002,
        "crossover probability": 0.9
    },
    "Fitness": 579849,
    "Solution": [
        343,
        114,
        52,
        60,
        331,
        46,
        439,
        217,
        421,
        5,
        239,
        3,
        371,
        96,
        401,
        2,
        398,
        454,
        437,
        462,
        308,
        296,
        351,
        213,
        442,
        161,
        355,
        0,
        24,
        87,
        163,
        346,
        402,
        464,
        198,
        256,
        392,
        78,
        54,
        347,
        30,
        10,
        125,
        137,
        183,
        486,
        349,
        487,
        86,
        452,
        497,
        31,
        13,
        23,
        11,
        61,
        277,
        499,
        18,
        390,
        301,
        223,
        425,
        191,
        68,
        468,
        325,
        202,
        171,
        41,
        491,
        369,
        373,
        84,
        404,
        479,
        396,
        19,
        97,
        104,
        293,
        290,
        322,
        141,
        237,
        391,
        284,
        469,
        111,
        71,
        409,
        384,
        451,
        107,
        20,
        426,
        90,
        260,
        39,
        367,
        169,
        152,
        245,
        165,
        397,
        432,
        119,
        480,
        103,
        262,
        302,
        266,
        89,
        145,
        236,
        273,
        15,
        306,
        356,
        50,
        47,
        449,
        66,
        176,
        249,
        187,
        115,
        32,
        207,
        204,
        258,
        291,
        427,
        417,
        380,
        174,
        186,
        240,
        313,
        279,
        311,
        21,
        326,
        434,
        12,
        285,
        211,
        116,
        25,
        430,
        272,
        269,
        388,
        261,
        438,
        9,
        413,
        162,
        112,
        14,
        244,
        339,
        139,
        201,
        55,
        496,
        170,
        190,
        34,
        199,
        144,
        127,
        470,
        242,
        458,
        132,
        42,
        64,
        123,
        386,
        75,
        147,
        423,
        362,
        117,
        250,
        172,
        74,
        255,
        80,
        379,
        324,
        44,
        62,
        332,
        400,
        189,
        51,
        361,
        234,
        167,
        265,
        370,
        314,
        375,
        73,
        418,
        88,
        463,
        218,
        77,
        248,
        101,
        492,
        53,
        459,
        253,
        102,
        232,
        460,
        490,
        443,
        387,
        135,
        457,
        267,
        208,
        233,
        424,
        252,
        412,
        485,
        433,
        319,
        446,
        57,
        195,
        372,
        376,
        297,
        416,
        128,
        16,
        316,
        456,
        395,
        148,
        110,
        228,
        307,
        70,
        113,
        126,
        323,
        156,
        385,
        405,
        294,
        177,
        419,
        342,
        271,
        206,
        243,
        212,
        329,
        157,
        209,
        365,
        219,
        160,
        348,
        360,
        318,
        328,
        166,
        478,
        229,
        435,
        36,
        200,
        22,
        363,
        130,
        221,
        58,
        28,
        393,
        327,
        407,
        49,
        344,
        461,
        129,
        354,
        37,
        257,
        151,
        7,
        17,
        26,
        406,
        93,
        333,
        254,
        415,
        227,
        494,
        108,
        403,
        477,
        493,
        105,
        472,
        179,
        330,
        498,
        95,
        164,
        350,
        450,
        100,
        56,
        120,
        146,
        357,
        368,
        247,
        305,
        289,
        310,
        315,
        341,
        283,
        381,
        312,
        298,
        226,
        336,
        466,
        337,
        185,
        429,
        222,
        304,
        38,
        225,
        389,
        69,
        467,
        473,
        92,
        340,
        99,
        196,
        220,
        251,
        287,
        35,
        76,
        465,
        453,
        178,
        428,
        131,
        33,
        448,
        216,
        334,
        488,
        150,
        210,
        134,
        475,
        410,
        420,
        158,
        358,
        274,
        268,
        300,
        149,
        140,
        455,
        394,
        124,
        180,
        27,
        374,
        264,
        184,
        441,
        303,
        29,
        136,
        353,
        345,
        203,
        168,
        106,
        238,
        481,
        65,
        205,
        118,
        270,
        94,
        215,
        48,
        317,
        278,
        143,
        91,
        436,
        377,
        6,
        292,
        263,
        335,
        378,
        359,
        133,
        82,
        181,
        153,
        40,
        474,
        320,
        275,
        280,
        495,
        155,
        72,
        173,
        489,
        4,
        422,
        281,
        142,
        259,
        445,
        121,
        83,
        79,
        241,
        282,
        230,
        98,
        109,
        192,
        382,
        408,
        288,
        483,
        414,
        231,
        45,
        286,
        81,
        471,
        214,
        138,
        338,
        309,
        411,
        431,
        482,
        8,
        43,
        122,
        321,
        224,
        159,
        175,
        188,
        383,
        67,
        476,
        295,
        193,
        246,
        352,
        399,
        364,
        1,
        85,
        154,
        235,
        63,
        447,
        366,
        197,
        182,
        276,
        444,
        440,
        59,
        194,
        299,
        484
    ],
    "Nb of functions evaluations": 200010,
    "Computational time in seconds": 811.4724562168121,
    "Stopping criterion in evaluations": 200000
}